p cnf 170 809
c p weight 22 0 0
c p weight -22 1 0
c p weight 23 1 0
c p weight -23 1 0
c p weight 31 0 0
c p weight -31 1 0
c p weight 32 1 0
c p weight -32 1 0
c p weight 40 0 0
c p weight -40 1 0
c p weight 41 1 0
c p weight -41 1 0
c p weight 48 0 0
c p weight -48 1 0
c p weight 49 1 0
c p weight -49 1 0
c p weight 57 0 0
c p weight -57 1 0
c p weight 58 1 0
c p weight -58 1 0
c p weight 65 0 0
c p weight -65 1 0
c p weight 66 1 0
c p weight -66 1 0
c p weight 74 0 0
c p weight -74 1 0
c p weight 75 1 0
c p weight -75 1 0
c p weight 84 0 0
c p weight -84 1 0
c p weight 85 1 0
c p weight -85 1 0
c p weight 96 0 0
c p weight -96 1 0
c p weight 97 1 0
c p weight -97 1 0
c p weight 108 0 0
c p weight -108 1 0
c p weight 109 1 0
c p weight -109 1 0
c p weight 119 0 0
c p weight -119 1 0
c p weight 120 1 0
c p weight -120 1 0
c p weight 131 0 0
c p weight -131 1 0
c p weight 132 1 0
c p weight -132 1 0
c p weight 142 0 0
c p weight -142 1 0
c p weight 143 1 0
c p weight -143 1 0
c p weight 154 0 0
c p weight -154 1 0
c p weight 155 1 0
c p weight -155 1 0
c p weight 166 0 0
c p weight -166 1 0
c p weight 167 1 0
c p weight -167 1 0
c p weight 168 -1 0
c p weight -168 1 0
c p weight 170 0.5 0
170 0
-17 0
-15 0
-13 0
-11 0
-9 0
-7 0
-5 0
-3 0
-1 0
18 -17 1 0
18 -17 2 0
-18 17 1 0
-18 17 2 0
18 17 -1 -2 0
-18 -17 -1 -2 0
19 1 -2 0
19 -1 2 0
-19 1 2 0
-19 -1 -2 0
20 21 -18 0
20 -18 19 0
-20 21 18 0
-20 18 19 0
20 -18 -1 0
-20 18 -1 0
20 -21 18 1 -19 0
-20 -21 -18 1 -19 0
21 -1 19 0
-21 1 19 0
-22 19 0
21 -22 -1 0
-21 -22 1 0
21 22 1 -19 0
-21 22 -1 -19 0
-23 19 0
21 -23 1 0
-21 -23 -1 0
21 23 -1 -19 0
-21 23 1 -19 0
24 -20 21 0
24 -20 19 0
-24 20 21 0
-24 20 19 0
24 20 -21 -19 0
-24 -20 -21 -19 0
25 21 -19 0
25 -21 19 0
-25 21 19 0
-25 -21 -19 0
26 24 -25 0
26 -24 25 0
-26 24 25 0
-26 -24 -25 0
27 -26 3 0
27 -26 4 0
-27 26 3 0
-27 26 4 0
27 26 -3 -4 0
-27 -26 -3 -4 0
28 3 -4 0
28 -3 4 0
-28 3 4 0
-28 -3 -4 0
29 30 -27 0
29 -27 28 0
-29 30 27 0
-29 27 28 0
29 -27 -3 0
-29 27 -3 0
29 -30 27 3 -28 0
-29 -30 -27 3 -28 0
30 -3 28 0
-30 3 28 0
-31 28 0
30 -31 -3 0
-30 -31 3 0
30 31 3 -28 0
-30 31 -3 -28 0
-32 28 0
30 -32 3 0
-30 -32 -3 0
30 32 -3 -28 0
-30 32 3 -28 0
33 -29 30 0
33 -29 28 0
-33 29 30 0
-33 29 28 0
33 29 -30 -28 0
-33 -29 -30 -28 0
34 30 -28 0
34 -30 28 0
-34 30 28 0
-34 -30 -28 0
35 33 -34 0
35 -33 34 0
-35 33 34 0
-35 -33 -34 0
36 -35 5 0
36 -35 6 0
-36 35 5 0
-36 35 6 0
36 35 -5 -6 0
-36 -35 -5 -6 0
37 5 -6 0
37 -5 6 0
-37 5 6 0
-37 -5 -6 0
38 39 -36 0
38 -36 37 0
-38 39 36 0
-38 36 37 0
38 -36 -5 0
-38 36 -5 0
38 -39 36 5 -37 0
-38 -39 -36 5 -37 0
39 -5 37 0
-39 5 37 0
-40 37 0
39 -40 -5 0
-39 -40 5 0
39 40 5 -37 0
-39 40 -5 -37 0
-41 37 0
39 -41 5 0
-39 -41 -5 0
39 41 -5 -37 0
-39 41 5 -37 0
42 -38 39 0
42 -38 37 0
-42 38 39 0
-42 38 37 0
42 38 -39 -37 0
-42 -38 -39 -37 0
43 39 -37 0
43 -39 37 0
-43 39 37 0
-43 -39 -37 0
44 -42 7 0
44 -42 8 0
-44 42 7 0
-44 42 8 0
44 42 -7 -8 0
-44 -42 -7 -8 0
45 7 -8 0
45 -7 8 0
-45 7 8 0
-45 -7 -8 0
46 47 -44 0
46 -44 45 0
-46 47 44 0
-46 44 45 0
46 -44 -7 0
-46 44 -7 0
46 -47 44 7 -45 0
-46 -47 -44 7 -45 0
47 -7 45 0
-47 7 45 0
-48 45 0
47 -48 -7 0
-47 -48 7 0
47 48 7 -45 0
-47 48 -7 -45 0
-49 45 0
47 -49 7 0
-47 -49 -7 0
47 49 -7 -45 0
-47 49 7 -45 0
50 -46 47 0
50 -46 45 0
-50 46 47 0
-50 46 45 0
50 46 -47 -45 0
-50 -46 -47 -45 0
51 47 -45 0
51 -47 45 0
-51 47 45 0
-51 -47 -45 0
52 50 -51 0
52 -50 51 0
-52 50 51 0
-52 -50 -51 0
53 -52 9 0
53 -52 10 0
-53 52 9 0
-53 52 10 0
53 52 -9 -10 0
-53 -52 -9 -10 0
54 9 -10 0
54 -9 10 0
-54 9 10 0
-54 -9 -10 0
55 56 -53 0
55 -53 54 0
-55 56 53 0
-55 53 54 0
55 -53 -9 0
-55 53 -9 0
55 -56 53 9 -54 0
-55 -56 -53 9 -54 0
56 -9 54 0
-56 9 54 0
-57 54 0
56 -57 -9 0
-56 -57 9 0
56 57 9 -54 0
-56 57 -9 -54 0
-58 54 0
56 -58 9 0
-56 -58 -9 0
56 58 -9 -54 0
-56 58 9 -54 0
59 -55 56 0
59 -55 54 0
-59 55 56 0
-59 55 54 0
59 55 -56 -54 0
-59 -55 -56 -54 0
60 56 -54 0
60 -56 54 0
-60 56 54 0
-60 -56 -54 0
61 -59 11 0
61 -59 12 0
-61 59 11 0
-61 59 12 0
61 59 -11 -12 0
-61 -59 -11 -12 0
62 11 -12 0
62 -11 12 0
-62 11 12 0
-62 -11 -12 0
63 64 -61 0
63 -61 62 0
-63 64 61 0
-63 61 62 0
63 -61 -11 0
-63 61 -11 0
63 -64 61 11 -62 0
-63 -64 -61 11 -62 0
64 -11 62 0
-64 11 62 0
-65 62 0
64 -65 -11 0
-64 -65 11 0
64 65 11 -62 0
-64 65 -11 -62 0
-66 62 0
64 -66 11 0
-64 -66 -11 0
64 66 -11 -62 0
-64 66 11 -62 0
67 -63 64 0
67 -63 62 0
-67 63 64 0
-67 63 62 0
67 63 -64 -62 0
-67 -63 -64 -62 0
68 64 -62 0
68 -64 62 0
-68 64 62 0
-68 -64 -62 0
69 67 -68 0
69 -67 68 0
-69 67 68 0
-69 -67 -68 0
70 -69 13 0
70 -69 14 0
-70 69 13 0
-70 69 14 0
70 69 -13 -14 0
-70 -69 -13 -14 0
71 13 -14 0
71 -13 14 0
-71 13 14 0
-71 -13 -14 0
72 73 -70 0
72 -70 71 0
-72 73 70 0
-72 70 71 0
72 -70 -13 0
-72 70 -13 0
72 -73 70 13 -71 0
-72 -73 -70 13 -71 0
73 -13 71 0
-73 13 71 0
-74 71 0
73 -74 -13 0
-73 -74 13 0
73 74 13 -71 0
-73 74 -13 -71 0
-75 71 0
73 -75 13 0
-73 -75 -13 0
73 75 -13 -71 0
-73 75 13 -71 0
76 -72 73 0
76 -72 71 0
-76 72 73 0
-76 72 71 0
76 72 -73 -71 0
-76 -72 -73 -71 0
77 73 -71 0
77 -73 71 0
-77 73 71 0
-77 -73 -71 0
78 76 -77 0
78 -76 77 0
-78 76 77 0
-78 -76 -77 0
79 78 -16 0
79 -78 16 0
-79 78 16 0
-79 -78 -16 0
80 -79 15 0
80 -79 16 0
-80 79 15 0
-80 79 16 0
80 79 -15 -16 0
-80 -79 -15 -16 0
81 15 -16 0
81 -15 16 0
-81 15 16 0
-81 -15 -16 0
82 83 -80 0
82 -80 81 0
-82 83 80 0
-82 80 81 0
82 -80 -15 0
-82 80 -15 0
82 -83 80 15 -81 0
-82 -83 -80 15 -81 0
83 -15 81 0
-83 15 81 0
-84 81 0
83 -84 -15 0
-83 -84 15 0
83 84 15 -81 0
-83 84 -15 -81 0
-85 81 0
83 -85 15 0
-83 -85 -15 0
83 85 -15 -81 0
-83 85 15 -81 0
86 -82 83 0
86 -82 81 0
-86 82 83 0
-86 82 81 0
86 82 -83 -81 0
-86 -82 -83 -81 0
87 83 -81 0
87 -83 81 0
-87 83 81 0
-87 -83 -81 0
88 -86 21 0
88 -86 87 0
-88 86 21 0
-88 86 87 0
88 -86 83 -25 0
88 -86 -83 25 0
-88 86 83 -25 0
-88 86 -83 25 0
88 86 -21 83 25 -87 0
88 86 -21 -83 -25 -87 0
-88 -86 -21 83 25 -87 0
-88 -86 -21 -83 -25 -87 0
90 21 -83 0
90 -21 83 0
-90 21 83 0
-90 -21 -83 0
89 25 -87 0
89 -25 87 0
-89 25 87 0
-89 -25 -87 0
91 88 -89 0
91 -88 89 0
-91 88 89 0
-91 -88 -89 0
92 -91 21 0
92 -91 89 0
-92 91 21 0
-92 91 89 0
92 91 -21 -89 0
-92 -91 -21 -89 0
93 21 -89 0
93 -21 89 0
-93 21 89 0
-93 -21 -89 0
94 95 -92 0
94 -92 93 0
-94 95 92 0
-94 92 93 0
94 -92 -21 0
-94 92 -21 0
94 -95 92 21 -93 0
-94 -95 -92 21 -93 0
95 -21 93 0
-95 21 93 0
-96 93 0
95 -96 -21 0
-95 -96 21 0
95 96 21 -93 0
-95 96 -21 -93 0
-97 93 0
95 -97 21 0
-95 -97 -21 0
95 97 -21 -93 0
-95 97 21 -93 0
98 -94 95 0
98 -94 93 0
-98 94 95 0
-98 94 93 0
98 94 -95 -93 0
-98 -94 -95 -93 0
99 95 -93 0
99 -95 93 0
-99 95 93 0
-99 -95 -93 0
100 -98 30 0
100 -98 87 0
-100 98 30 0
-100 98 87 0
100 -98 90 -34 0
100 -98 -90 34 0
-100 98 90 -34 0
-100 98 -90 34 0
100 98 -30 90 34 -87 0
100 98 -30 -90 -34 -87 0
-100 -98 -30 90 34 -87 0
-100 -98 -30 -90 -34 -87 0
102 30 -90 0
102 -30 90 0
-102 30 90 0
-102 -30 -90 0
101 34 -87 0
101 -34 87 0
-101 34 87 0
-101 -34 -87 0
103 100 -101 0
103 -100 101 0
-103 100 101 0
-103 -100 -101 0
104 -103 30 0
104 -103 101 0
-104 103 30 0
-104 103 101 0
104 103 -30 -101 0
-104 -103 -30 -101 0
105 30 -101 0
105 -30 101 0
-105 30 101 0
-105 -30 -101 0
106 107 -104 0
106 -104 105 0
-106 107 104 0
-106 104 105 0
106 -104 -30 0
-106 104 -30 0
106 -107 104 30 -105 0
-106 -107 -104 30 -105 0
107 -30 105 0
-107 30 105 0
-108 105 0
107 -108 -30 0
-107 -108 30 0
107 108 30 -105 0
-107 108 -30 -105 0
-109 105 0
107 -109 30 0
-107 -109 -30 0
107 109 -30 -105 0
-107 109 30 -105 0
110 -106 107 0
110 -106 105 0
-110 106 107 0
-110 106 105 0
110 106 -107 -105 0
-110 -106 -107 -105 0
111 107 -105 0
111 -107 105 0
-111 107 105 0
-111 -107 -105 0
112 -110 39 0
112 -110 87 0
-112 110 39 0
-112 110 87 0
112 -110 102 -43 0
112 -110 -102 43 0
-112 110 102 -43 0
-112 110 -102 43 0
112 110 -39 102 43 -87 0
112 110 -39 -102 -43 -87 0
-112 -110 -39 102 43 -87 0
-112 -110 -39 -102 -43 -87 0
114 39 -102 0
114 -39 102 0
-114 39 102 0
-114 -39 -102 0
113 43 -87 0
113 -43 87 0
-113 43 87 0
-113 -43 -87 0
115 -112 39 0
115 -112 113 0
-115 112 39 0
-115 112 113 0
115 112 -39 -113 0
-115 -112 -39 -113 0
116 39 -113 0
116 -39 113 0
-116 39 113 0
-116 -39 -113 0
117 118 -115 0
117 -115 116 0
-117 118 115 0
-117 115 116 0
117 -115 -39 0
-117 115 -39 0
117 -118 115 39 -116 0
-117 -118 -115 39 -116 0
118 -39 116 0
-118 39 116 0
-119 116 0
118 -119 -39 0
-118 -119 39 0
118 119 39 -116 0
-118 119 -39 -116 0
-120 116 0
118 -120 39 0
-118 -120 -39 0
118 120 -39 -116 0
-118 120 39 -116 0
121 -117 118 0
121 -117 116 0
-121 117 118 0
-121 117 116 0
121 117 -118 -116 0
-121 -117 -118 -116 0
122 118 -116 0
122 -118 116 0
-122 118 116 0
-122 -118 -116 0
123 -121 47 0
123 -121 87 0
-123 121 47 0
-123 121 87 0
123 -121 114 -51 0
123 -121 -114 51 0
-123 121 114 -51 0
-123 121 -114 51 0
123 121 -47 114 51 -87 0
123 121 -47 -114 -51 -87 0
-123 -121 -47 114 51 -87 0
-123 -121 -47 -114 -51 -87 0
125 47 -114 0
125 -47 114 0
-125 47 114 0
-125 -47 -114 0
124 51 -87 0
124 -51 87 0
-124 51 87 0
-124 -51 -87 0
126 123 -124 0
126 -123 124 0
-126 123 124 0
-126 -123 -124 0
127 -126 47 0
127 -126 124 0
-127 126 47 0
-127 126 124 0
127 126 -47 -124 0
-127 -126 -47 -124 0
128 47 -124 0
128 -47 124 0
-128 47 124 0
-128 -47 -124 0
129 130 -127 0
129 -127 128 0
-129 130 127 0
-129 127 128 0
129 -127 -47 0
-129 127 -47 0
129 -130 127 47 -128 0
-129 -130 -127 47 -128 0
130 -47 128 0
-130 47 128 0
-131 128 0
130 -131 -47 0
-130 -131 47 0
130 131 47 -128 0
-130 131 -47 -128 0
-132 128 0
130 -132 47 0
-130 -132 -47 0
130 132 -47 -128 0
-130 132 47 -128 0
133 -129 130 0
133 -129 128 0
-133 129 130 0
-133 129 128 0
133 129 -130 -128 0
-133 -129 -130 -128 0
134 130 -128 0
134 -130 128 0
-134 130 128 0
-134 -130 -128 0
135 -133 56 0
135 -133 87 0
-135 133 56 0
-135 133 87 0
135 -133 125 -60 0
135 -133 -125 60 0
-135 133 125 -60 0
-135 133 -125 60 0
135 133 -56 125 60 -87 0
135 133 -56 -125 -60 -87 0
-135 -133 -56 125 60 -87 0
-135 -133 -56 -125 -60 -87 0
137 56 -125 0
137 -56 125 0
-137 56 125 0
-137 -56 -125 0
136 60 -87 0
136 -60 87 0
-136 60 87 0
-136 -60 -87 0
138 -135 56 0
138 -135 136 0
-138 135 56 0
-138 135 136 0
138 135 -56 -136 0
-138 -135 -56 -136 0
139 56 -136 0
139 -56 136 0
-139 56 136 0
-139 -56 -136 0
140 141 -138 0
140 -138 139 0
-140 141 138 0
-140 138 139 0
140 -138 -56 0
-140 138 -56 0
140 -141 138 56 -139 0
-140 -141 -138 56 -139 0
141 -56 139 0
-141 56 139 0
-142 139 0
141 -142 -56 0
-141 -142 56 0
141 142 56 -139 0
-141 142 -56 -139 0
-143 139 0
141 -143 56 0
-141 -143 -56 0
141 143 -56 -139 0
-141 143 56 -139 0
144 -140 141 0
144 -140 139 0
-144 140 141 0
-144 140 139 0
144 140 -141 -139 0
-144 -140 -141 -139 0
145 141 -139 0
145 -141 139 0
-145 141 139 0
-145 -141 -139 0
146 -144 64 0
146 -144 87 0
-146 144 64 0
-146 144 87 0
146 -144 137 -68 0
146 -144 -137 68 0
-146 144 137 -68 0
-146 144 -137 68 0
146 144 -64 137 68 -87 0
146 144 -64 -137 -68 -87 0
-146 -144 -64 137 68 -87 0
-146 -144 -64 -137 -68 -87 0
148 64 -137 0
148 -64 137 0
-148 64 137 0
-148 -64 -137 0
147 68 -87 0
147 -68 87 0
-147 68 87 0
-147 -68 -87 0
149 146 -147 0
149 -146 147 0
-149 146 147 0
-149 -146 -147 0
150 -149 64 0
150 -149 147 0
-150 149 64 0
-150 149 147 0
150 149 -64 -147 0
-150 -149 -64 -147 0
151 64 -147 0
151 -64 147 0
-151 64 147 0
-151 -64 -147 0
152 153 -150 0
152 -150 151 0
-152 153 150 0
-152 150 151 0
152 -150 -64 0
-152 150 -64 0
152 -153 150 64 -151 0
-152 -153 -150 64 -151 0
153 -64 151 0
-153 64 151 0
-154 151 0
153 -154 -64 0
-153 -154 64 0
153 154 64 -151 0
-153 154 -64 -151 0
-155 151 0
153 -155 64 0
-153 -155 -64 0
153 155 -64 -151 0
-153 155 64 -151 0
156 -152 153 0
156 -152 151 0
-156 152 153 0
-156 152 151 0
156 152 -153 -151 0
-156 -152 -153 -151 0
157 153 -151 0
157 -153 151 0
-157 153 151 0
-157 -153 -151 0
158 -156 73 0
158 -156 87 0
-158 156 73 0
-158 156 87 0
158 -156 148 -77 0
158 -156 -148 77 0
-158 156 148 -77 0
-158 156 -148 77 0
158 156 -73 148 77 -87 0
158 156 -73 -148 -77 -87 0
-158 -156 -73 148 77 -87 0
-158 -156 -73 -148 -77 -87 0
160 73 -148 0
160 -73 148 0
-160 73 148 0
-160 -73 -148 0
159 77 -87 0
159 -77 87 0
-159 77 87 0
-159 -77 -87 0
161 158 -159 0
161 -158 159 0
-161 158 159 0
-161 -158 -159 0
162 -161 73 0
162 -161 159 0
-162 161 73 0
-162 161 159 0
162 161 -73 -159 0
-162 -161 -73 -159 0
163 73 -159 0
163 -73 159 0
-163 73 159 0
-163 -73 -159 0
164 165 -162 0
164 -162 163 0
-164 165 162 0
-164 162 163 0
164 -162 -73 0
-164 162 -73 0
164 -165 162 73 -163 0
-164 -165 -162 73 -163 0
165 -73 163 0
-165 73 163 0
-166 163 0
165 -166 -73 0
-165 -166 73 0
165 166 73 -163 0
-165 166 -73 -163 0
-167 163 0
165 -167 73 0
-165 -167 -73 0
165 167 -73 -163 0
-165 167 73 -163 0
168 -164 165 0
168 -164 163 0
-168 164 165 0
-168 164 163 0
168 164 -165 -163 0
-168 -164 -165 -163 0
169 165 -163 0
169 -165 163 0
-169 165 163 0
-169 -165 -163 0
-95 0
-107 0
-111 0
-118 0
-122 0
-130 0
-134 0
-141 0
-145 0
-153 0
-157 0
-165 0
-169 0
-160 0
-87 0
